NAME: random-96-31686
TYPE: TSP
COMMENT: size=96 seed=31686
DIMENSION: 194
EDGE_WEIGHT_TYPE: EUC_2D
NODE_COORD_SECTION
+0 602 765
-0 602 765
+1 973 353
-1 154 338
+2 150 822
-2 143 864
+3 649 347
-3 711 810
+4 220 873
-4 484 133
+5 342 567
-5 60 495
+6 443 726
-6 203 868
+7 669 411
-7 474 939
+8 780 721
-8 679 438
+9 479 565
-9 100 534
+10 293 941
-10 592 606
+11 42 29
-11 997 722
+12 357 186
-12 997 319
+13 190 214
-13 447 215
+14 559 835
-14 157 865
+15 684 934
-15 341 588
+16 972 314
-16 71 410
+17 998 646
-17 773 329
+18 597 33
-18 495 152
+19 913 554
-19 87 546
+20 80 600
-20 700 28
+21 45 61
-21 814 849
+22 190 143
-22 285 596
+23 496 891
-23 562 441
+24 297 574
-24 617 970
+25 511 920
-25 806 458
+26 92 477
-26 447 933
+27 386 426
-27 437 96
+28 986 769
-28 304 468
+29 298 287
-29 86 228
+30 59 202
-30 19 319
+31 373 371
-31 972 733
+32 159 465
-32 277 723
+33 591 389
-33 234 811
+34 172 354
-34 871 662
+35 134 435
-35 834 84
+36 997 996
-36 69 141
+37 574 203
-37 951 137
+38 699 971
-38 39 445
+39 549 515
-39 871 874
+40 487 4
-40 973 540
+41 615 694
-41 9 484
+42 842 677
-42 104 170
+43 778 335
-43 587 68
+44 654 267
-44 720 20
+45 585 705
-45 688 667
+46 186 570
-46 405 510
+47 903 901
-47 780 991
+48 682 155
-48 747 362
+49 997 490
-49 554 515
+50 727 620
-50 282 729
+51 181 41
-51 710 538
+52 715 996
-52 727 464
+53 829 126
-53 811 21
+54 251 233
-54 252 962
+55 932 250
-55 610 281
+56 727 830
-56 632 749
+57 435 18
-57 100 113
+58 439 754
-58 887 98
+59 839 886
-59 810 905
+60 123 479
-60 872 443
+61 828 178
-61 10 139
+62 695 803
-62 338 199
+63 200 180
-63 475 369
+64 883 558
-64 825 810
+65 520 724
-65 409 397
+66 718 622
-66 972 758
+67 86 830
-67 472 269
+68 456 706
-68 900 189
+69 623 405
-69 558 720
+70 74 6
-70 578 104
+71 493 835
-71 147 685
+72 487 726
-72 565 435
+73 317 582
-73 195 62
+74 334 75
-74 939 335
+75 891 185
-75 722 786
+76 564 699
-76 596 810
+77 398 541
-77 516 748
+78 605 879
-78 193 198
+79 698 165
-79 742 925
+80 291 561
-80 733 15
+81 584 423
-81 876 297
+82 761 171
-82 7 568
+83 531 671
-83 475 864
+84 941 647
-84 85 527
+85 238 511
-85 382 914
+86 216 323
-86 741 106
+87 374 819
-87 776 319
+88 194 30
-88 918 793
+89 798 892
-89 986 735
+90 293 941
-90 926 767
+91 746 308
-91 233 48
+92 371 784
-92 948 978
+93 298 857
-93 217 74
+94 600 735
-94 526 306
+95 679 837
-95 510 878
+96 19 768
-96 498 54
PRECEDENCE_SECTION
+0 -0
+1 -1
+2 -2
+3 -3
+4 -4
+5 -5
+6 -6
+7 -7
+8 -8
+9 -9
+10 -10
+11 -11
+12 -12
+13 -13
+14 -14
+15 -15
+16 -16
+17 -17
+18 -18
+19 -19
+20 -20
+21 -21
+22 -22
+23 -23
+24 -24
+25 -25
+26 -26
+27 -27
+28 -28
+29 -29
+30 -30
+31 -31
+32 -32
+33 -33
+34 -34
+35 -35
+36 -36
+37 -37
+38 -38
+39 -39
+40 -40
+41 -41
+42 -42
+43 -43
+44 -44
+45 -45
+46 -46
+47 -47
+48 -48
+49 -49
+50 -50
+51 -51
+52 -52
+53 -53
+54 -54
+55 -55
+56 -56
+57 -57
+58 -58
+59 -59
+60 -60
+61 -61
+62 -62
+63 -63
+64 -64
+65 -65
+66 -66
+67 -67
+68 -68
+69 -69
+70 -70
+71 -71
+72 -72
+73 -73
+74 -74
+75 -75
+76 -76
+77 -77
+78 -78
+79 -79
+80 -80
+81 -81
+82 -82
+83 -83
+84 -84
+85 -85
+86 -86
+87 -87
+88 -88
+89 -89
+90 -90
+91 -91
+92 -92
+93 -93
+94 -94
+95 -95
+96 -96
EOF
